c Sudoku solution
p cnf 729 0
146 0
221 0
278 0
297 0
316 0
286 0
338 0
351 0
447 0
476 0
482 0
555 0
574 0
653 0
664 0
566 0
679 0
687 0
698 0
495 0
711 0
759 0
458 0
168 0
792 0
835 0
843 0
937 0
945 0
767 0
748 0
877 0
157 0
327 0
517 0
528 0
983 0
775 0
971 0
784 0
888 0
861 0
962 0
918 0
252 0
372 0
469 0
431 0
539 0
542 0
641 0
173 0
363 0
265 0
385 0
581 0
593 0
191 0
189 0
394 0
219 0
233 0
244 0
349 0
413 0
424 0
723 0
736 0
929 0
814 0
822 0
856 0
954 0
899 0
996 0
134 0
125 0
112 0
615 0
626 0
632 0
